c random cnf
p cnf 50 50
16 -34 0
23 -44 0
-21 38 0
-29 42 0
13 24 0
-14 -15 0
-9 50 0
19 35 0
12 35 0
-3 49 0
-37 -38 0
-35 36 0
4 -36 0
24 -28 0
-37 -39 0
29 37 0
13 23 0
-9 -22 0
18 26 0
-8 -41 0
27 41 0
-37 48 0
3 33 0
-1 -5 0
-24 -50 0
12 46 0
-5 -18 0
-22 23 0
7 -14 0
-12 13 0
3 -36 0
18 -38 0
35 38 0
3 -6 0
-3 -45 0
-31 -39 0
6 -39 0
-19 -20 0
-7 45 0
-41 -49 0
-32 -47 0
-11 -34 0
-17 -35 0
-5 42 0
13 -44 0
14 49 0
18 -43 0
-35 -42 0
12 21 0
-18 -31 0
